language Essence 1.3

letting class be
        function(1 --> 4, 2 --> 3, 3 --> 2, 4 --> 9, 5 --> 6, 6 --> 3, 7 --> 3, 8 --> 9, 9 --> 9, 10 --> 1, 11 --> 5,
                 12 --> 6, 13 --> 9, 14 --> 5, 15 --> 7, 16 --> 6, 17 --> 7, 18 --> 5, 19 --> 4, 20 --> 1, 21 --> 9,
                 22 --> 8, 23 --> 8, 24 --> 4, 25 --> 6, 26 --> 1, 27 --> 2, 28 --> 6, 29 --> 10)
letting deck_length be 96
letting deck_width be 12
letting length be
        function(1 --> 1, 2 --> 1, 3 --> 1, 4 --> 1, 5 --> 1, 6 --> 1, 7 --> 1, 8 --> 1, 9 --> 1, 10 --> 10, 11 --> 1,
                 12 --> 2, 13 --> 1, 14 --> 1, 15 --> 18, 16 --> 1, 17 --> 3, 18 --> 1, 19 --> 1, 20 --> 1, 21 --> 1,
                 22 --> 1, 23 --> 5, 24 --> 1, 25 --> 1, 26 --> 1, 27 --> 1, 28 --> 2, 29 --> 1)
letting n_classes be 10
letting n_containers be 29
letting separation be function()
letting width be
        function(1 --> 8, 2 --> 7, 3 --> 10, 4 --> 2, 5 --> 2, 6 --> 7, 7 --> 3, 8 --> 7, 9 --> 5, 10 --> 12, 11 --> 5,
                 12 --> 8, 13 --> 12, 14 --> 11, 15 --> 12, 16 --> 11, 17 --> 1, 18 --> 7, 19 --> 4, 20 --> 1, 21 --> 3,
                 22 --> 7, 23 --> 12, 24 --> 11, 25 --> 2, 26 --> 5, 27 --> 7, 28 --> 1, 29 --> 10)
